DIMACS_lns/graph-1000-7.col
p edge 1000 1830
e 1 926
e 1 115
e 1 585
e 1 10
e 2 766
e 2 330
e 2 809
e 2 991
e 3 825
e 3 439
e 3 811
e 4 634
e 4 515
e 4 469
e 5 879
e 5 567
e 5 303
e 5 498
e 5 313
e 6 759
e 6 340
e 6 235
e 7 552
e 7 715
e 7 48
e 7 806
e 7 528
e 8 995
e 8 911
e 8 141
e 8 574
e 8 197
e 10 770
e 10 450
e 10 259
e 10 137
e 10 833
e 11 399
e 11 208
e 11 27
e 11 693
e 11 274
e 12 215
e 12 374
e 12 697
e 12 326
e 13 35
e 13 914
e 13 406
e 13 701
e 13 297
e 14 63
e 14 445
e 14 27
e 14 428
e 14 256
e 14 732
e 16 674
e 16 63
e 16 420
e 16 400
e 16 43
e 16 656
e 16 68
e 16 39
e 16 271
e 16 105
e 16 98
e 17 655
e 17 450
e 17 65
e 19 484
e 19 961
e 19 259
e 19 1000
e 21 637
e 21 395
e 21 224
e 22 268
e 22 30
e 22 622
e 22 686
e 22 458
e 22 811
e 22 233
e 22 269
e 22 673
e 22 349
e 24 560
e 24 369
e 24 943
e 26 545
e 26 662
e 26 350
e 26 675
e 26 794
e 26 825
e 27 278
e 27 544
e 29 766
e 29 218
e 29 389
e 30 718
e 30 110
e 30 674
e 31 979
e 31 202
e 31 921
e 31 872
e 32 43
e 32 764
e 32 271
e 32 731
e 34 149
e 34 917
e 34 998
e 34 595
e 34 300
e 34 41
e 35 227
e 35 36
e 35 662
e 35 219
e 35 97
e 35 116
e 35 803
e 35 41
e 35 921
e 36 432
e 36 571
e 36 42
e 36 447
e 37 819
e 37 637
e 37 858
e 37 332
e 37 108
e 38 382
e 38 432
e 38 168
e 38 406
e 39 347
e 39 114
e 39 510
e 40 689
e 40 109
e 40 965
e 40 249
e 41 624
e 42 652
e 42 446
e 42 609
e 42 415
e 42 555
e 43 410
e 43 60
e 43 730
e 43 164
e 43 270
e 44 714
e 44 741
e 44 897
e 45 983
e 45 212
e 45 837
e 45 640
e 45 990
e 45 330
e 45 943
e 45 209
e 46 945
e 46 164
e 46 156
e 46 758
e 46 689
e 47 669
e 47 74
e 47 647
e 48 68
e 48 649
e 48 402
e 49 918
e 49 263
e 49 998
e 49 382
e 49 410
e 50 911
e 50 551
e 50 916
e 54 568
e 54 735
e 54 796
e 54 905
e 54 213
e 55 501
e 55 763
e 55 930
e 55 544
e 56 769
e 56 510
e 56 521
e 56 883
e 57 531
e 57 466
e 57 884
e 59 88
e 59 754
e 59 647
e 59 853
e 59 303
e 59 179
e 59 947
e 59 897
e 60 571
e 60 266
e 60 185
e 61 361
e 61 457
e 61 858
e 62 624
e 62 918
e 62 741
e 62 722
e 62 360
e 63 920
e 65 791
e 65 597
e 65 347
e 65 382
e 65 384
e 66 317
e 66 280
e 66 403
e 66 376
e 68 227
e 68 709
e 68 667
e 68 148
e 68 146
e 68 947
e 69 110
e 69 458
e 69 621
e 69 791
e 70 755
e 70 538
e 70 249
e 70 576
e 70 584
e 74 975
e 74 124
e 74 698
e 74 644
e 74 125
e 74 258
e 77 429
e 77 464
e 77 187
e 78 185
e 78 103
e 78 530
e 78 527
e 79 869
e 79 362
e 79 282
e 79 754
e 82 634
e 82 849
e 82 814
e 83 760
e 83 503
e 83 642
e 87 124
e 87 351
e 87 825
e 88 548
e 88 151
e 88 842
e 89 926
e 89 764
e 89 728
e 89 428
e 89 269
e 89 560
e 90 804
e 90 550
e 90 911
e 90 754
e 90 971
e 91 880
e 91 230
e 91 340
e 91 282
e 91 509
e 91 808
e 91 344
e 92 980
e 92 412
e 92 599
e 92 104
e 92 664
e 93 685
e 93 264
e 93 505
e 93 861
e 93 960
e 93 425
e 93 227
e 93 965
e 94 822
e 94 848
e 94 660
e 94 449
e 94 708
e 95 197
e 95 836
e 95 207
e 95 422
e 96 141
e 96 161
e 96 711
e 96 206
e 97 829
e 97 347
e 97 735
e 97 369
e 97 694
e 97 167
e 98 503
e 98 411
e 98 757
e 98 193
e 98 790
e 98 207
e 98 765
e 100 437
e 100 981
e 100 400
e 100 770
e 100 423
e 101 136
e 101 356
e 101 718
e 101 601
e 101 644
e 101 346
e 102 235
e 102 880
e 102 650
e 102 202
e 103 489
e 103 257
e 103 672
e 104 357
e 104 593
e 104 680
e 104 794
e 104 149
e 104 477
e 104 614
e 105 747
e 105 674
e 105 804
e 105 528
e 105 352
e 106 172
e 106 892
e 106 374
e 108 918
e 108 798
e 108 268
e 108 644
e 108 669
e 108 716
e 108 314
e 109 536
e 109 888
e 109 523
e 110 637
e 110 618
e 110 581
e 110 879
e 112 201
e 112 230
e 112 308
e 112 326
e 112 534
e 112 913
e 112 271
e 112 413
e 112 871
e 114 180
e 114 974
e 114 953
e 114 479
e 115 209
e 115 227
e 115 461
e 115 413
e 116 313
e 116 166
e 116 754
e 116 513
e 116 565
e 116 410
e 117 495
e 117 233
e 117 451
e 118 271
e 118 372
e 118 278
e 118 577
e 118 412
e 121 339
e 121 600
e 121 471
e 121 333
e 122 271
e 122 793
e 122 931
e 122 733
e 124 981
e 124 222
e 125 133
e 125 416
e 125 266
e 125 551
e 126 769
e 126 246
e 126 420
e 126 361
e 130 343
e 130 641
e 130 968
e 131 601
e 131 797
e 131 209
e 133 952
e 133 948
e 135 524
e 135 692
e 135 604
e 135 663
e 136 884
e 136 426
e 137 604
e 137 489
e 137 959
e 137 906
e 137 713
e 137 590
e 139 211
e 139 517
e 139 525
e 139 509
e 140 804
e 140 141
e 140 565
e 140 737
e 140 843
e 141 211
e 141 906
e 141 663
e 144 544
e 144 768
e 144 692
e 144 959
e 144 209
e 144 916
e 146 424
e 146 725
e 146 705
e 147 827
e 147 375
e 147 216
e 147 893
e 147 192
e 148 928
e 148 920
e 148 656
e 148 527
e 148 857
e 148 688
e 149 911
e 149 447
e 149 319
e 150 369
e 150 745
e 150 329
e 150 797
e 150 344
e 151 632
e 151 281
e 151 233
e 151 981
e 152 155
e 152 955
e 152 649
e 152 251
e 152 506
e 153 298
e 153 462
e 153 253
e 153 273
e 153 925
e 153 746
e 153 268
e 154 253
e 154 428
e 154 530
e 155 852
e 155 372
e 155 515
e 155 397
e 155 981
e 155 228
e 156 642
e 156 968
e 156 913
e 158 526
e 158 674
e 158 317
e 158 480
e 159 741
e 159 614
e 159 887
e 159 890
e 160 889
e 160 999
e 160 253
e 160 825
e 160 311
e 160 657
e 161 393
e 161 531
e 163 259
e 163 487
e 163 967
e 163 991
e 163 859
e 164 244
e 164 968
e 164 871
e 164 246
e 164 798
e 165 913
e 165 242
e 165 224
e 165 861
e 166 414
e 166 952
e 166 442
e 166 256
e 166 332
e 166 545
e 167 918
e 167 883
e 167 597
e 167 992
e 167 631
e 167 454
e 168 645
e 168 993
e 168 233
e 168 583
e 168 643
e 169 986
e 169 553
e 169 407
e 169 777
e 169 820
e 169 446
e 172 824
e 172 696
e 173 386
e 173 389
e 173 367
e 173 571
e 173 699
e 173 376
e 173 601
e 173 476
e 175 295
e 175 372
e 175 367
e 175 534
e 179 781
e 179 560
e 179 709
e 180 729
e 180 281
e 180 510
e 180 283
e 180 874
e 181 236
e 181 912
e 181 661
e 181 971
e 182 712
e 182 892
e 182 721
e 184 579
e 184 312
e 184 230
e 185 731
e 185 535
e 185 992
e 186 891
e 186 206
e 186 586
e 187 204
e 187 634
e 187 299
e 187 266
e 187 450
e 188 485
e 188 894
e 188 943
e 189 991
e 189 550
e 189 389
e 189 441
e 189 400
e 191 416
e 191 240
e 191 577
e 191 552
e 192 763
e 192 711
e 193 988
e 193 679
e 194 265
e 194 218
e 194 525
e 194 228
e 194 622
e 195 842
e 195 501
e 195 944
e 195 343
e 196 397
e 196 224
e 196 350
e 197 335
e 197 832
e 197 358
e 197 577
e 201 850
e 201 394
e 201 481
e 202 964
e 202 521
e 203 776
e 203 246
e 203 487
e 203 797
e 204 589
e 204 680
e 205 531
e 205 532
e 205 894
e 205 729
e 205 451
e 205 1000
e 206 391
e 206 517
e 206 459
e 206 570
e 206 412
e 206 468
e 206 299
e 207 604
e 207 994
e 207 894
e 207 812
e 207 574
e 208 762
e 208 632
e 208 912
e 209 682
e 209 456
e 209 900
e 210 376
e 210 735
e 210 892
e 210 996
e 210 233
e 210 514
e 210 250
e 211 253
e 211 439
e 211 363
e 212 381
e 212 907
e 213 524
e 213 688
e 214 492
e 214 595
e 214 841
e 214 763
e 214 469
e 215 728
e 215 399
e 215 888
e 216 468
e 216 796
e 216 672
e 216 585
e 216 665
e 218 918
e 218 594
e 219 581
e 219 652
e 219 926
e 220 961
e 220 862
e 220 414
e 220 746
e 220 533
e 222 580
e 222 740
e 222 968
e 222 584
e 224 579
e 224 891
e 224 333
e 224 236
e 225 995
e 225 752
e 225 281
e 225 703
e 225 794
e 227 340
e 227 666
e 227 342
e 227 599
e 227 585
e 228 878
e 230 424
e 230 749
e 230 425
e 230 317
e 230 496
e 230 844
e 233 628
e 233 502
e 235 867
e 235 696
e 236 789
e 236 378
e 236 339
e 237 594
e 237 248
e 237 401
e 237 558
e 238 660
e 238 717
e 238 329
e 238 610
e 238 759
e 240 743
e 240 967
e 240 317
e 241 458
e 241 739
e 241 829
e 241 600
e 241 390
e 242 862
e 242 684
e 243 974
e 243 353
e 243 415
e 243 576
e 244 327
e 244 520
e 244 733
e 245 452
e 245 975
e 245 636
e 245 690
e 245 395
e 245 717
e 245 871
e 246 931
e 246 912
e 246 731
e 247 342
e 247 543
e 247 846
e 247 964
e 248 723
e 248 752
e 248 262
e 248 827
e 248 781
e 249 583
e 249 859
e 249 692
e 249 453
e 250 725
e 250 991
e 250 281
e 250 890
e 250 916
e 250 610
e 250 908
e 251 837
e 251 698
e 251 552
e 252 651
e 252 842
e 252 466
e 253 910
e 255 273
e 255 474
e 255 471
e 255 312
e 255 401
e 256 362
e 257 623
e 257 320
e 257 552
e 257 673
e 258 557
e 258 433
e 258 727
e 258 385
e 258 521
e 259 281
e 259 618
e 259 822
e 259 807
e 261 912
e 261 864
e 261 948
e 261 363
e 262 846
e 262 453
e 263 964
e 263 361
e 263 519
e 264 792
e 264 381
e 264 773
e 264 920
e 264 963
e 264 313
e 264 724
e 264 350
e 265 833
e 265 934
e 266 919
e 266 849
e 267 592
e 267 644
e 267 503
e 267 698
e 268 948
e 268 406
e 269 513
e 270 607
e 270 866
e 270 311
e 270 275
e 272 385
e 272 303
e 272 595
e 272 855
e 272 369
e 272 792
e 273 636
e 273 581
e 273 628
e 273 455
e 274 644
e 274 484
e 275 924
e 275 642
e 275 435
e 278 550
e 280 639
e 280 394
e 280 623
e 281 446
e 281 377
e 281 823
e 282 629
e 282 558
e 282 533
e 282 730
e 282 516
e 283 737
e 283 363
e 287 780
e 287 894
e 287 497
e 288 367
e 288 532
e 288 312
e 290 953
e 290 308
e 290 920
e 295 648
e 295 634
e 295 860
e 295 741
e 295 900
e 295 774
e 296 781
e 296 592
e 296 924
e 297 847
e 297 718
e 297 426
e 297 836
e 297 372
e 297 954
e 298 904
e 298 406
e 298 633
e 298 502
e 298 469
e 299 894
e 299 792
e 300 364
e 300 342
e 300 362
e 302 327
e 302 480
e 302 707
e 302 568
e 302 822
e 302 645
e 303 772
e 303 981
e 303 781
e 304 840
e 304 861
e 304 343
e 305 751
e 305 974
e 305 777
e 305 579
e 305 702
e 305 602
e 307 731
e 307 715
e 307 469
e 308 455
e 308 471
e 308 947
e 308 673
e 308 501
e 308 867
e 310 814
e 310 952
e 310 934
e 310 317
e 311 760
e 311 952
e 311 628
e 311 429
e 311 492
e 312 823
e 312 940
e 313 371
e 313 363
e 314 797
e 314 736
e 316 597
e 316 809
e 316 757
e 317 806
e 317 599
e 317 424
e 317 719
e 317 668
e 319 525
e 319 736
e 319 652
e 319 459
e 320 747
e 320 793
e 320 698
e 326 376
e 327 921
e 327 724
e 329 535
e 329 935
e 329 636
e 330 335
e 330 847
e 331 843
e 331 905
e 331 946
e 332 919
e 332 760
e 332 571
e 332 993
e 332 530
e 332 939
e 332 347
e 332 525
e 333 530
e 333 456
e 333 702
e 333 562
e 334 504
e 334 705
e 334 495
e 334 771
e 335 535
e 335 618
e 335 632
e 336 917
e 336 979
e 336 797
e 336 563
e 336 390
e 338 855
e 338 930
e 338 674
e 339 783
e 339 954
e 339 943
e 339 707
e 339 988
e 340 735
e 340 693
e 340 591
e 340 726
e 342 414
e 342 496
e 343 628
e 344 913
e 344 859
e 344 413
e 344 904
e 344 495
e 346 688
e 346 820
e 346 814
e 346 643
e 347 372
e 347 699
e 348 996
e 348 658
e 348 811
e 349 709
e 349 536
e 349 959
e 350 375
e 350 824
e 350 782
e 350 590
e 350 821
e 350 410
e 351 446
e 351 523
e 351 912
e 352 709
e 352 841
e 352 544
e 353 552
e 353 935
e 353 789
e 356 981
e 356 512
e 356 422
e 357 535
e 357 893
e 358 959
e 358 970
e 358 995
e 360 891
e 360 693
e 360 935
e 360 708
e 360 657
e 361 685
e 361 754
e 361 755
e 361 533
e 362 683
e 362 401
e 362 584
e 362 377
e 362 595
e 363 451
e 363 960
e 363 543
e 364 730
e 364 432
e 364 928
e 366 547
e 366 732
e 366 480
e 366 679
e 366 908
e 367 476
e 369 708
e 371 536
e 371 391
e 371 404
e 372 592
e 372 811
e 372 402
e 374 443
e 375 441
e 375 756
e 375 833
e 375 953
e 375 806
e 376 852
e 376 696
e 376 385
e 376 973
e 377 779
e 377 602
e 378 592
e 378 893
e 379 535
e 379 892
e 379 942
e 381 648
e 381 569
e 382 741
e 382 526
e 384 506
e 384 746
e 385 968
e 385 961
e 386 397
e 386 702
e 386 415
e 386 420
e 389 403
e 389 416
e 390 512
e 390 757
e 390 686
e 390 888
e 391 889
e 391 821
e 391 665
e 391 912
e 393 560
e 393 997
e 393 995
e 394 610
e 394 721
e 395 489
e 395 811
e 395 863
e 395 780
e 398 476
e 398 855
e 398 480
e 399 651
e 399 441
e 400 614
e 400 694
e 400 525
e 402 474
e 402 703
e 402 512
e 403 519
e 403 610
e 403 435
e 404 766
e 404 862
e 405 951
e 405 694
e 405 860
e 405 570
e 406 576
e 406 457
e 406 543
e 407 700
e 407 734
e 408 510
e 408 863
e 408 504
e 410 485
e 410 731
e 410 613
e 411 963
e 411 513
e 411 998
e 412 832
e 412 936
e 413 723
e 414 623
e 414 569
e 414 794
e 415 636
e 415 756
e 415 465
e 416 907
e 416 785
e 416 498
e 416 466
e 418 994
e 418 453
e 418 665
e 418 946
e 418 954
e 422 429
e 422 709
e 422 806
e 422 771
e 423 808
e 423 562
e 423 855
e 423 551
e 424 836
e 424 942
e 425 539
e 425 485
e 426 629
e 428 443
e 428 822
e 428 766
e 429 437
e 429 487
e 431 711
e 431 993
e 431 647
e 431 698
e 431 562
e 432 663
e 432 499
e 432 912
e 432 585
e 433 910
e 433 892
e 435 973
e 435 779
e 437 696
e 437 913
e 437 793
e 437 812
e 439 639
e 439 1000
e 439 707
e 441 874
e 441 628
e 441 589
e 442 580
e 442 465
e 442 821
e 443 592
e 445 980
e 445 727
e 447 703
e 447 733
e 447 860
e 447 822
e 449 516
e 449 951
e 449 626
e 450 860
e 450 746
e 450 892
e 451 674
e 452 777
e 452 579
e 453 517
e 454 569
e 454 953
e 454 824
e 454 662
e 454 928
e 455 617
e 456 709
e 457 955
e 457 712
e 458 970
e 458 526
e 458 857
e 459 986
e 461 639
e 461 790
e 462 864
e 462 752
e 464 672
e 464 968
e 464 971
e 464 879
e 464 641
e 464 679
e 465 960
e 465 724
e 465 558
e 466 625
e 466 633
e 466 792
e 468 555
e 468 925
e 469 641
e 469 710
e 470 723
e 470 568
e 470 989
e 474 765
e 474 958
e 474 718
e 476 536
e 476 794
e 476 673
e 477 502
e 477 935
e 477 726
e 477 506
e 479 496
e 479 843
e 479 857
e 479 745
e 480 735
e 480 583
e 481 484
e 481 722
e 481 709
e 484 660
e 485 505
e 485 862
e 485 781
e 487 944
e 487 794
e 489 519
e 489 884
e 489 604
e 492 497
e 492 902
e 496 523
e 497 776
e 497 817
e 497 729
e 497 859
e 498 769
e 499 970
e 499 514
e 501 661
e 501 740
e 501 534
e 502 781
e 503 536
e 504 907
e 504 718
e 505 752
e 505 811
e 505 689
e 506 848
e 506 880
e 509 860
e 509 959
e 509 911
e 510 682
e 512 749
e 513 648
e 513 600
e 513 825
e 514 664
e 514 623
e 514 548
e 514 858
e 515 576
e 516 617
e 516 757
e 516 885
e 517 771
e 517 831
e 519 894
e 520 664
e 520 902
e 520 827
e 520 564
e 520 850
e 521 591
e 523 673
e 524 908
e 524 752
e 525 690
e 525 770
e 526 806
e 526 695
e 526 932
e 526 594
e 526 728
e 527 944
e 527 683
e 528 852
e 530 878
e 530 846
e 530 717
e 531 960
e 531 860
e 531 640
e 532 936
e 533 751
e 534 594
e 534 734
e 535 829
e 536 996
e 536 823
e 538 755
e 538 652
e 539 568
e 539 618
e 539 569
e 539 867
e 539 1000
e 539 798
e 543 786
e 543 964
e 544 860
e 544 583
e 545 609
e 545 918
e 545 608
e 545 847
e 545 754
e 545 600
e 547 913
e 547 605
e 548 811
e 548 936
e 550 862
e 550 668
e 550 592
e 551 824
e 551 848
e 551 819
e 553 567
e 553 878
e 555 607
e 557 932
e 557 803
e 557 817
e 560 607
e 562 779
e 562 807
e 562 728
e 562 914
e 562 768
e 563 792
e 563 685
e 564 785
e 564 708
e 565 673
e 565 675
e 567 925
e 568 696
e 568 741
e 569 887
e 569 797
e 570 680
e 570 953
e 570 664
e 571 727
e 574 640
e 575 806
e 575 925
e 575 755
e 575 737
e 576 739
e 576 728
e 577 692
e 578 864
e 578 757
e 578 608
e 579 848
e 579 646
e 579 844
e 579 648
e 580 887
e 581 773
e 581 603
e 581 715
e 583 791
e 583 693
e 584 712
e 584 912
e 586 889
e 586 986
e 586 649
e 586 745
e 588 718
e 588 951
e 588 747
e 589 840
e 589 610
e 589 854
e 589 626
e 590 713
e 590 701
e 591 770
e 591 621
e 592 995
e 592 858
e 593 662
e 593 658
e 593 790
e 593 871
e 597 783
e 597 817
e 598 947
e 598 864
e 598 613
e 599 980
e 600 951
e 600 993
e 600 943
e 602 768
e 602 921
e 603 897
e 603 697
e 603 978
e 604 657
e 605 878
e 605 697
e 607 961
e 607 626
e 608 786
e 609 811
e 610 680
e 610 827
e 613 884
e 614 884
e 614 858
e 614 786
e 617 790
e 617 963
e 618 652
e 618 772
e 621 891
e 621 963
e 622 637
e 622 713
e 622 747
e 623 864
e 623 831
e 624 785
e 624 749
e 624 935
e 624 675
e 625 696
e 625 904
e 626 862
e 626 981
e 626 711
e 628 833
e 628 686
e 628 947
e 628 918
e 629 958
e 631 762
e 631 641
e 633 864
e 634 782
e 634 759
e 634 792
e 636 730
e 636 864
e 639 849
e 639 857
e 640 786
e 641 931
e 641 888
e 642 893
e 643 673
e 643 707
e 643 700
e 644 725
e 644 904
e 644 823
e 645 878
e 645 730
e 645 783
e 646 944
e 646 906
e 646 978
e 646 766
e 647 770
e 647 652
e 648 726
e 648 703
e 649 684
e 649 907
e 650 772
e 650 757
e 651 997
e 652 959
e 652 786
e 652 663
e 655 851
e 655 863
e 655 926
e 656 971
e 656 804
e 658 951
e 658 717
e 661 841
e 661 696
e 661 827
e 661 863
e 663 780
e 663 846
e 663 765
e 663 714
e 664 760
e 666 754
e 666 680
e 667 905
e 667 721
e 667 735
e 668 916
e 669 749
e 672 916
e 672 796
e 674 946
e 675 854
e 680 918
e 680 819
e 680 752
e 680 803
e 682 893
e 682 710
e 682 819
e 683 694
e 683 979
e 683 889
e 684 740
e 685 948
e 686 701
e 686 943
e 688 904
e 688 892
e 688 871
e 689 857
e 690 883
e 692 736
e 693 984
e 693 716
e 693 973
e 694 730
e 695 940
e 695 758
e 695 849
e 696 866
e 697 948
e 698 844
e 699 755
e 700 993
e 700 710
e 702 745
e 703 808
e 703 724
e 705 913
e 705 850
e 706 904
e 706 773
e 706 762
e 707 780
e 707 796
e 708 728
e 710 866
e 711 960
e 712 877
e 712 762
e 714 807
e 716 949
e 717 721
e 719 811
e 719 911
e 719 774
e 721 847
e 721 937
e 722 897
e 724 983
e 724 965
e 724 942
e 727 758
e 727 797
e 727 998
e 728 911
e 731 766
e 731 824
e 732 883
e 732 859
e 733 940
e 734 837
e 734 931
e 734 747
e 735 764
e 735 940
e 737 851
e 739 939
e 739 984
e 739 890
e 739 945
e 740 819
e 740 955
e 741 991
e 743 994
e 743 926
e 745 893
e 746 940
e 746 958
e 751 771
e 752 945
e 754 782
e 754 791
e 756 877
e 762 877
e 762 811
e 764 862
e 764 791
e 764 807
e 764 971
e 765 937
e 766 984
e 768 936
e 768 889
e 769 807
e 769 859
e 769 772
e 770 978
e 772 869
e 774 937
e 776 863
e 776 811
e 776 971
e 776 980
e 777 939
e 782 836
e 782 933
e 783 855
e 789 790
e 790 935
e 793 885
e 793 965
e 794 994
e 796 936
e 796 991
e 797 806
e 797 906
e 798 944
e 803 872
e 803 871
e 804 812
e 807 917
e 807 852
e 808 822
e 808 874
e 809 963
e 812 849
e 817 990
e 817 827
e 820 911
e 821 960
e 821 984
e 822 848
e 822 997
e 823 989
e 824 935
e 829 998
e 831 939
e 832 912
e 832 900
e 832 918
e 836 919
e 836 897
e 836 944
e 840 978
e 840 944
e 841 953
e 842 919
e 843 919
e 846 971
e 846 872
e 848 877
e 851 878
e 851 997
e 853 967
e 853 885
e 854 907
e 855 910
e 857 926
e 858 942
e 859 997
e 866 932
e 866 926
e 869 973
e 871 934
e 872 999
e 872 905
e 874 991
e 884 902
e 889 933
e 892 961
e 894 990
e 894 913
e 905 996
e 906 997
e 910 995
e 912 914
e 913 967
e 916 989
e 916 924
e 916 984
e 918 949
e 930 999
e 931 949
e 931 961
e 933 979
e 933 948
e 935 998
e 935 953
e 936 988
e 937 953
e 940 961
e 942 988
e 949 952
e 954 983
e 964 975
e 964 994
e 980 983
e 984 992
